tsp_instances/TSP50/instance9.tsp
NODE_COORD_SECTION
0 38 154
1 108 36
2 92 183
3 200 188
4 6 71
5 80 135
6 138 28
7 74 147
8 176 181
9 110 105
10 140 45
11 117 132
12 138 94
13 60 10
14 61 144
15 140 37
16 56 85
17 139 179
18 195 140
19 61 80
20 105 67
21 95 138
22 83 81
23 70 150
24 57 138
25 159 193
26 145 178
27 194 39
28 184 135
29 113 140
30 63 85
31 108 172
32 173 168
33 87 62
34 2 42
35 69 110
36 95 51
37 167 30
38 141 111
39 145 6
40 80 148
41 97 162
42 2 165
43 0 159
44 44 120
45 112 46
46 40 11
47 123 180
48 17 107
49 140 183
