tsp_instances/TSP50/instance9.opt.tour
TOUR_SECTION
1
15
25
45
36
17
20
31
23
34
37
21
10
12
30
22
6
8
24
41
42
3
32
48
50
18
27
26
33
9
4
19
29
39
13
28
38
40
7
16
11
46
2
14
47
35
5
49
44
43
-1